program_setup_time=600;
sequence_setup_time=300;
max_colors_per_job=2;
min_cycles_per_job=2;
max_cycles_per_job=30;
max_jobs=25;
num_colors=4;
num_programs=2;
num_moulds=4;
num_demands=4;
num_lines=3;
available_moulds=[6,6,4,6];
slots_per_program=[9,7];
cycle_time_for_program=[3570,3060];
program_for_mould=[1,1,2,2];
line_for_mould=[1,1,2,3];
color_compatibility=array2d(colors, colors, [1,1,1,1,1,1,1,1,1,1,1,1,1,1,1,1]);
demand_qty=[2,13,1,1];
demand_duedate=[-714164,-714164,-167564,-167564];
demand_color=[1,2,3,4];
demand_mould=[1,2,3,4];
reference_makespan = 21300;
reference_tardiness = 1827776;
reference_waste = 33;